c Output_time 26.03.2020 18:15:36_+0100 1585242936357997847
c ** Program information **
c program_name                          "QBRG_debug"
c version                               "0.3.20"
c date                                  "25.3.2020"
c gid_id                                "673970833836058123f633335630c185360d632e"
c author                                "Oliver Kullmann"
c url                                   "https://github.com/OKullmann/oklibrary/blob/master/Satisfiability/Transformers/Generators/Random/QBRG.cpp"
c ** Machine information **
c machine_name                          "chyna-Lenovo-G50-70"
c bogomips                              3791.08
c ** Compilation information **
c compiler_version                      "g++ 7.5.0"
c compilation_date                      "Mar_26_2020 11:16:30"
c compilation_options                   "--std=c++17 -pedantic -fmax-errors=5 -Wall -Wextra -g -D_GLIBCXX_DEBUG"
c NDEBUG                                0
c OPTIMIZE                              0
c ** Parameters **
c command-line                          "./QBRG_debug" "a40 e40 a40 40" "664*1,1|2-2,1|3-3,1|4-4,1" "" "1,t" ""
c output                                "QuBlRaGe_160_664_1585242936160017300.qdimacs"
c options                               "filtered,renamed"
c num_quantifier_blocks                 4
c  quantifier_blocks                    1:a1-40 2:e41-80 3:a81-120 4:e121-160
c num_clause-blocks                     1
c  clause-blocks                        664 * {1-40,1,1/2} | {41-80,1,1/2} | {81-120,1,1/2} | {121-160,1,1/2}
c num_e-seeds                           37+2=39
c  e-seeds                              1 0 1 0 5 160 2 40 0 40 1 40 0 40 1 664 4 1 1 1 1 2 2 2 1 1 2 3 3 1 1 2 4 4 1 1 2 1 1585242936160016264
p cnf 160 664
a 1 2 3 4 5 6 7 8 9 10 11 12 13 14 15 16 17 18 19 20 21 22 23 24 25 26 27 28 29 30 31 32 33 34 35 36 37 38 39 40 0
e 41 42 43 44 45 46 47 48 49 50 51 52 53 54 55 56 57 58 59 60 61 62 63 64 65 66 67 68 69 70 71 72 73 74 75 76 77 78 79 80 0
a 81 82 83 84 85 86 87 88 89 90 91 92 93 94 95 96 97 98 99 100 101 102 103 104 105 106 107 108 109 110 111 112 113 114 115 116 117 118 119 120 0
e 121 122 123 124 125 126 127 128 129 130 131 132 133 134 135 136 137 138 139 140 141 142 143 144 145 146 147 148 149 150 151 152 153 154 155 156 157 158 159 160 0
-9 -56 -82 -121 0
-22 -50 -86 -121 0
-12 -67 94 -121 0
-6 64 -95 -121 0
8 -61 98 -121 0
18 61 104 -121 0
11 -73 -118 -121 0
-22 -79 83 121 0
-31 54 -92 121 0
-24 76 111 121 0
29 -45 112 121 0
-6 42 -113 121 0
-22 44 120 121 0
-31 -49 83 -122 0
-21 -75 85 -122 0
40 -48 -90 -122 0
39 72 -92 -122 0
-28 -66 92 -122 0
-26 -70 94 -122 0
-4 45 -97 -122 0
-21 -58 101 -122 0
5 72 104 -122 0
-25 77 -108 -122 0
40 66 111 -122 0
40 -57 -116 -122 0
-29 -50 119 -122 0
-26 44 83 122 0
-26 46 -91 122 0
38 -55 -97 122 0
33 -65 107 122 0
9 -63 -109 122 0
11 -53 110 122 0
-2 -59 -120 122 0
21 62 120 122 0
-14 -68 -93 -123 0
26 -74 -93 -123 0
28 -67 95 -123 0
-17 -69 -100 -123 0
10 -74 100 -123 0
2 56 -105 -123 0
35 -42 108 -123 0
32 57 -111 -123 0
30 75 -113 -123 0
31 -47 -115 -123 0
40 41 116 -123 0
-5 -71 -82 123 0
-10 -68 82 123 0
29 42 -86 123 0
-10 -54 -97 123 0
-7 -54 97 123 0
29 -48 -98 123 0
32 -78 98 123 0
-31 -50 99 123 0
-24 -73 104 123 0
20 42 -106 123 0
-26 -60 -107 123 0
27 53 -114 123 0
-22 59 -114 123 0
35 -47 -119 123 0
-12 -72 94 -124 0
-30 78 -96 -124 0
-9 43 -111 -124 0
-11 63 -112 -124 0
-6 -80 -116 -124 0
-19 61 90 124 0
32 -50 92 124 0
6 70 -110 124 0
-20 -52 111 124 0
-25 52 111 124 0
-40 -60 112 124 0
26 -79 114 124 0
31 -56 118 124 0
-34 49 -87 -125 0
-13 -59 88 -125 0
-24 -69 89 -125 0
-24 72 90 -125 0
-37 -66 100 -125 0
-18 -52 108 -125 0
-15 -65 111 -125 0
-16 -64 117 -125 0
-9 63 119 -125 0
30 80 -82 125 0
-15 44 82 125 0
29 60 97 125 0
22 -44 101 125 0
15 -74 -102 125 0
-8 57 103 125 0
-23 -61 -105 125 0
10 65 -109 125 0
7 -70 -115 125 0
-3 41 115 125 0
-9 -51 115 125 0
2 -77 -120 125 0
21 -42 -83 -126 0
39 -54 -84 -126 0
40 42 -87 -126 0
-29 48 98 -126 0
3 -65 100 -126 0
-8 -69 101 -126 0
16 -52 114 -126 0
26 79 -86 126 0
10 -70 -89 126 0
-4 -59 -94 126 0
-37 -56 94 126 0
-33 50 98 126 0
-4 51 -116 126 0
38 79 -120 126 0
-28 -65 -89 -127 0
34 65 91 -127 0
-25 -55 100 -127 0
34 80 -105 -127 0
18 -77 -108 -127 0
-16 -57 109 -127 0
21 48 -82 127 0
-40 -49 -82 127 0
29 43 -98 127 0
-5 -43 -99 127 0
-25 71 103 127 0
38 78 -107 127 0
-4 -65 112 127 0
-39 55 -116 127 0
-31 61 118 127 0
24 72 83 -128 0
-8 -64 -84 -128 0
37 63 85 -128 0
36 54 94 -128 0
24 66 97 -128 0
-8 58 99 -128 0
9 -55 105 -128 0
-37 48 -107 -128 0
-30 -66 -113 -128 0
-13 70 -117 -128 0
28 -52 117 -128 0
38 59 117 -128 0
-25 63 -99 128 0
-24 -51 100 128 0
33 79 105 128 0
13 -78 -111 128 0
-39 45 -117 128 0
-36 49 -91 -129 0
25 -54 92 -129 0
27 -60 95 -129 0
-1 80 -109 -129 0
-27 69 -119 -129 0
1 64 119 -129 0
40 41 -81 129 0
-33 -50 94 129 0
-16 42 -95 129 0
-8 53 -107 129 0
33 41 -108 129 0
-5 -49 -109 129 0
-14 49 119 129 0
-11 55 -81 -130 0
-39 -47 -83 -130 0
9 41 -86 -130 0
23 -68 -104 -130 0
-2 -44 -110 -130 0
4 -43 111 -130 0
18 -73 114 -130 0
15 -70 -81 130 0
19 65 87 130 0
-21 -51 -95 130 0
-34 49 -99 130 0
-20 64 -100 130 0
28 -58 103 130 0
14 -79 107 130 0
8 77 108 130 0
-27 63 110 130 0
-28 -48 116 130 0
-38 -63 81 -131 0
-26 -42 82 -131 0
-12 -80 -83 -131 0
-36 -59 -84 -131 0
11 54 -90 -131 0
-2 47 94 -131 0
-7 -69 105 -131 0
28 62 -109 -131 0
-19 44 120 -131 0
-19 -45 83 131 0
14 -63 -87 131 0
24 -48 88 131 0
39 -50 88 131 0
13 -46 -91 131 0
6 -54 93 131 0
24 -66 115 131 0
24 -74 -118 131 0
-29 -46 83 -132 0
-21 67 -85 -132 0
2 -68 96 -132 0
-26 80 100 -132 0
-29 68 107 -132 0
1 68 -108 -132 0
-40 -68 -109 -132 0
11 -78 117 -132 0
24 -69 -82 132 0
16 -70 93 132 0
5 53 -104 132 0
18 56 104 132 0
9 73 -117 132 0
8 -51 88 -133 0
-8 -42 -98 -133 0
36 44 -98 -133 0
29 -65 100 -133 0
36 64 -103 -133 0
-36 61 104 -133 0
7 76 105 -133 0
-8 -72 112 -133 0
29 -43 -114 -133 0
-21 50 -115 -133 0
-34 56 119 -133 0
-36 -79 119 -133 0
-40 51 98 133 0
-13 77 -100 133 0
28 -61 103 133 0
21 -50 107 133 0
-7 -47 83 -134 0
-27 53 -86 -134 0
38 73 -89 -134 0
-2 77 -96 -134 0
13 58 -97 -134 0
-39 48 101 -134 0
25 -50 104 -134 0
2 50 -107 -134 0
10 45 -108 -134 0
-9 -64 110 -134 0
-21 -45 111 -134 0
-11 -53 -115 -134 0
-18 62 -117 -134 0
16 -80 82 134 0
-25 76 -91 134 0
18 -63 91 134 0
18 54 93 134 0
9 41 -103 134 0
-26 69 -116 134 0
6 -65 -117 134 0
-23 -57 -82 -135 0
-33 46 83 -135 0
-7 43 89 -135 0
20 45 -91 -135 0
8 64 -91 -135 0
21 76 91 -135 0
40 41 105 -135 0
-39 78 110 -135 0
-14 50 -117 -135 0
-36 55 -88 135 0
17 -47 93 135 0
-24 73 -102 135 0
-28 42 -103 135 0
12 -49 111 135 0
-25 -49 115 135 0
30 -79 -119 135 0
-2 60 -84 -136 0
16 52 -86 -136 0
12 49 -95 -136 0
30 -80 -96 -136 0
-7 -43 -103 -136 0
30 -54 -106 -136 0
8 -47 -107 -136 0
-7 -41 -114 -136 0
7 -47 -81 136 0
-29 42 82 136 0
-1 67 -87 136 0
31 -75 -87 136 0
-37 -58 90 136 0
-34 -65 99 136 0
-8 52 -103 136 0
27 -43 -110 136 0
26 -41 -118 136 0
25 -55 118 136 0
17 -71 120 136 0
28 -73 92 -137 0
-26 -54 -117 -137 0
-9 -43 117 -137 0
-38 72 -87 137 0
17 62 87 137 0
-38 -64 88 137 0
-1 -56 -92 137 0
-12 70 100 137 0
-13 76 -101 137 0
-40 79 104 137 0
10 71 109 137 0
8 -64 -111 137 0
36 -59 116 137 0
13 80 98 -138 0
17 70 -104 -138 0
11 80 106 -138 0
18 67 112 -138 0
17 -43 -120 -138 0
-3 -63 84 138 0
10 -42 98 138 0
-38 70 -101 138 0
-18 -52 102 138 0
-18 -46 105 138 0
-26 62 107 138 0
34 41 -112 138 0
1 -42 -112 138 0
-33 -70 -82 -139 0
-35 -79 -84 -139 0
7 -62 106 -139 0
39 41 107 -139 0
4 48 109 -139 0
23 -64 113 -139 0
2 51 118 -139 0
36 -72 84 139 0
23 45 -85 139 0
2 69 95 139 0
32 42 -104 139 0
-26 -61 -111 139 0
22 -76 -112 139 0
-32 49 -84 -140 0
26 -56 -88 -140 0
-12 -69 -97 -140 0
-39 69 -105 -140 0
31 78 -120 -140 0
6 -49 -84 140 0
4 61 86 140 0
36 50 -87 140 0
-24 64 95 140 0
18 -42 -99 140 0
-8 65 102 140 0
7 65 -112 140 0
-22 53 -116 140 0
-18 -75 -82 -141 0
31 42 -83 -141 0
14 78 85 -141 0
-17 59 90 -141 0
-10 66 94 -141 0
-25 73 -100 -141 0
-38 68 105 -141 0
-8 -65 -107 -141 0
10 80 116 -141 0
32 -65 -95 141 0
21 -50 -97 141 0
34 -41 97 141 0
-11 47 99 141 0
-19 -78 -100 141 0
11 -71 -106 141 0
-5 50 107 141 0
34 41 117 141 0
-17 -54 -106 -142 0
-28 -73 -106 -142 0
37 62 -107 -142 0
-28 -79 109 -142 0
-23 59 110 -142 0
11 -63 112 -142 0
32 -42 -117 -142 0
40 -59 -117 -142 0
21 59 119 -142 0
25 79 -81 142 0
14 59 -83 142 0
-15 -47 -87 142 0
-30 54 -101 142 0
13 58 -102 142 0
-1 78 -110 142 0
19 41 110 142 0
-12 -59 115 142 0
-30 -49 120 142 0
-40 49 120 142 0
-14 -54 83 -143 0
15 54 -91 -143 0
39 78 -98 -143 0
6 52 98 -143 0
1 64 102 -143 0
-36 72 106 -143 0
27 -69 109 -143 0
23 -65 119 -143 0
-13 54 86 143 0
-31 -72 89 143 0
-23 41 -93 143 0
-36 47 108 143 0
-24 -56 108 143 0
24 55 112 143 0
39 42 -114 143 0
-14 -66 -120 143 0
-27 -50 -81 -144 0
-20 -49 81 -144 0
-30 -41 -84 -144 0
12 -67 86 -144 0
-36 80 -87 -144 0
-31 76 -92 -144 0
-9 42 97 -144 0
-30 64 102 -144 0
-4 48 -116 -144 0
36 -45 -118 -144 0
27 74 120 -144 0
-10 -57 83 144 0
-6 -73 -84 144 0
35 -51 -88 144 0
29 55 88 144 0
-10 -49 -95 144 0
24 80 -101 144 0
-18 56 -110 144 0
-17 50 110 144 0
11 72 111 144 0
-27 -62 117 144 0
-8 -69 118 144 0
10 -68 120 144 0
-6 -48 -83 -145 0
-3 59 -87 -145 0
39 -80 -89 -145 0
26 -44 -90 -145 0
25 -63 92 -145 0
-28 80 -97 -145 0
27 63 106 -145 0
30 -43 -118 -145 0
-11 56 -84 145 0
27 61 94 145 0
-37 76 -96 145 0
31 55 -99 145 0
34 -74 108 145 0
-34 -66 -81 -146 0
3 56 -90 -146 0
-2 -59 93 -146 0
29 -42 96 -146 0
-2 66 -99 -146 0
8 -55 -100 -146 0
40 44 -108 -146 0
-7 -58 -110 -146 0
28 -58 114 -146 0
-19 80 115 -146 0
-6 45 -116 -146 0
-12 49 -119 -146 0
26 -65 94 146 0
-18 -43 99 146 0
28 -75 101 146 0
23 57 102 146 0
-4 68 104 146 0
-33 48 -117 146 0
-40 55 -82 -147 0
-13 -50 95 -147 0
37 -79 97 -147 0
18 64 112 -147 0
29 78 119 -147 0
-9 80 119 -147 0
20 -60 84 147 0
1 -70 -86 147 0
38 -49 96 147 0
10 -75 -101 147 0
-24 -65 -102 147 0
25 -63 108 147 0
1 -69 -110 147 0
-38 -74 -110 147 0
7 68 -111 147 0
15 -78 112 147 0
-7 -69 113 147 0
-29 44 120 147 0
31 69 -82 -148 0
29 55 -88 -148 0
-15 -78 88 -148 0
-23 -42 100 -148 0
21 41 101 -148 0
-3 46 -105 -148 0
27 42 -111 -148 0
33 -66 -111 -148 0
-14 -52 112 -148 0
-16 77 -117 -148 0
-30 42 -120 -148 0
31 61 103 148 0
9 44 105 148 0
25 45 105 148 0
2 -65 -109 148 0
29 63 -112 148 0
12 -74 -115 148 0
-19 -44 -119 148 0
18 66 -81 -149 0
-33 -53 81 -149 0
12 -66 84 -149 0
-11 65 89 -149 0
30 51 92 -149 0
-3 -59 93 -149 0
-29 -69 95 -149 0
-28 -62 -97 -149 0
2 -62 -100 -149 0
-19 -69 -104 -149 0
19 -69 -107 -149 0
32 -47 -114 -149 0
-10 -60 115 -149 0
-28 -63 -116 -149 0
36 -48 -118 -149 0
24 -44 118 -149 0
-13 -75 81 149 0
18 -76 -83 149 0
30 -60 83 149 0
-37 45 -86 149 0
14 49 93 149 0
9 -69 -94 149 0
-40 -74 -97 149 0
-18 -71 111 149 0
25 76 -112 149 0
26 75 113 149 0
-37 70 -114 149 0
34 72 114 149 0
18 -72 -115 149 0
-18 69 84 -150 0
-39 -64 91 -150 0
-23 -47 92 -150 0
-24 72 92 -150 0
25 -59 -94 -150 0
-17 60 -96 -150 0
20 62 118 -150 0
-38 45 -119 -150 0
-19 -47 83 150 0
28 -56 87 150 0
-26 56 -94 150 0
-40 -74 -103 150 0
40 47 107 150 0
22 -69 -110 150 0
-40 -74 -113 150 0
5 59 119 150 0
34 -43 83 -151 0
-6 -44 102 -151 0
26 -45 107 -151 0
36 -46 -115 -151 0
-28 76 -117 -151 0
21 -47 -81 151 0
26 71 -84 151 0
39 69 88 151 0
-26 56 -93 151 0
-28 43 95 151 0
27 44 -96 151 0
39 73 -108 151 0
13 77 -111 151 0
10 53 -116 151 0
-14 62 118 151 0
12 55 -93 -152 0
-8 56 -93 -152 0
23 -54 118 -152 0
33 -51 84 152 0
-8 77 84 152 0
5 -51 -88 152 0
-6 56 88 152 0
3 71 91 152 0
21 -59 93 152 0
11 43 -99 152 0
27 -76 -99 152 0
-4 49 -102 152 0
3 -42 104 152 0
4 -76 -114 152 0
15 -41 117 152 0
-26 69 120 152 0
10 -52 -87 -153 0
7 80 91 -153 0
-24 72 92 -153 0
-12 54 -97 -153 0
5 -71 99 -153 0
23 73 101 -153 0
-27 -79 -102 -153 0
36 50 106 -153 0
5 -53 108 -153 0
34 -60 -113 -153 0
19 55 -116 -153 0
32 78 101 153 0
40 67 -105 153 0
26 -57 -107 153 0
29 -74 109 153 0
15 -43 -117 153 0
-18 -43 -117 153 0
40 59 89 -154 0
-8 -42 96 -154 0
35 -46 -108 -154 0
32 49 108 -154 0
-37 -56 109 -154 0
-30 71 -115 -154 0
29 -72 -118 -154 0
4 50 -119 -154 0
-33 -59 -119 -154 0
10 -60 85 154 0
15 -62 89 154 0
32 -42 -91 154 0
-9 67 93 154 0
-39 79 101 154 0
31 -42 113 154 0
6 -72 -115 154 0
6 -71 -89 -155 0
-20 -72 -97 -155 0
-12 -77 -109 -155 0
12 -56 109 -155 0
3 -74 119 -155 0
-32 -60 -85 155 0
13 62 85 155 0
5 54 88 155 0
-30 55 -94 155 0
-24 -49 -98 155 0
-22 -56 100 155 0
-12 72 102 155 0
7 -50 -108 155 0
-32 71 114 155 0
9 42 -116 155 0
23 -51 -116 155 0
-28 44 87 -156 0
34 58 89 -156 0
-4 -73 98 -156 0
25 -53 -100 -156 0
35 78 101 -156 0
12 -59 104 -156 0
30 -73 111 -156 0
-10 56 114 -156 0
-4 70 118 -156 0
-8 67 86 156 0
-29 -43 94 156 0
4 74 103 156 0
39 64 -118 156 0
-7 -74 -81 -157 0
-9 55 84 -157 0
11 -74 -85 -157 0
-31 -63 85 -157 0
24 49 88 -157 0
-11 -74 -94 -157 0
39 -63 97 -157 0
-25 65 100 -157 0
-12 -64 101 -157 0
-4 52 118 -157 0
-3 -79 -82 157 0
36 75 -86 157 0
40 -52 108 157 0
-24 43 109 157 0
-11 -79 115 157 0
-8 -63 -117 157 0
4 -64 -118 157 0
15 60 -83 -158 0
2 -68 -84 -158 0
-9 54 86 -158 0
-2 -68 -89 -158 0
23 45 -90 -158 0
-30 78 -96 -158 0
33 -75 96 -158 0
-34 65 98 -158 0
36 -59 -99 -158 0
-32 -63 -102 -158 0
-17 -42 106 -158 0
20 61 -107 -158 0
-26 69 -81 158 0
38 -48 -83 158 0
-21 -58 87 158 0
21 44 -104 158 0
-11 62 104 158 0
19 66 82 -159 0
-20 74 82 -159 0
-36 51 -88 -159 0
-15 57 -88 -159 0
30 -56 90 -159 0
-14 -46 -92 -159 0
-15 45 -97 -159 0
40 -54 -101 -159 0
2 56 106 -159 0
4 63 108 -159 0
-9 75 -110 -159 0
-29 -50 114 -159 0
-34 43 -116 -159 0
24 55 -119 -159 0
-25 78 -97 159 0
30 -77 98 159 0
-31 56 -102 159 0
15 71 -82 -160 0
-31 -49 -92 -160 0
-4 42 -93 -160 0
4 62 -98 -160 0
3 -61 -107 -160 0
4 -60 -110 -160 0
13 -69 -115 -160 0
20 48 -116 -160 0
-29 52 84 160 0
2 -78 86 160 0
9 80 -89 160 0
